(set-info :smt-lib-version 2.6)
(set-logic QF_UFLRA)
(set-info :source |
MathSat group

|)
(set-info :category "random")
(set-info :status sat)
(declare-fun f0_1 (Real) Real)
(declare-fun f0_2 (Real Real) Real)
(declare-fun f0_3 (Real Real Real) Real)
(declare-fun f0_4 (Real Real Real Real) Real)
(declare-fun f1_1 (Real) Real)
(declare-fun f1_2 (Real Real) Real)
(declare-fun f1_3 (Real Real Real) Real)
(declare-fun f1_4 (Real Real Real Real) Real)
(declare-fun x0 () Real)
(declare-fun x1 () Real)
(declare-fun x2 () Real)
(declare-fun x3 () Real)
(declare-fun x4 () Real)
(declare-fun x5 () Real)
(declare-fun x6 () Real)
(declare-fun x7 () Real)
(declare-fun x8 () Real)
(declare-fun x9 () Real)
(declare-fun x10 () Real)
(declare-fun x11 () Real)
(declare-fun x12 () Real)
(declare-fun x13 () Real)
(declare-fun x14 () Real)
(declare-fun x15 () Real)
(declare-fun x16 () Real)
(declare-fun x17 () Real)
(declare-fun x18 () Real)
(declare-fun x19 () Real)
(declare-fun P0 () Bool)
(declare-fun P1 () Bool)
(declare-fun P2 () Bool)
(declare-fun P3 () Bool)
(declare-fun P4 () Bool)
(declare-fun P5 () Bool)
(declare-fun P6 () Bool)
(declare-fun P7 () Bool)
(declare-fun P8 () Bool)
(declare-fun P9 () Bool)
(declare-fun P10 () Bool)
(declare-fun P11 () Bool)
(declare-fun P12 () Bool)
(declare-fun P13 () Bool)
(declare-fun P14 () Bool)
(declare-fun P15 () Bool)
(declare-fun P16 () Bool)
(declare-fun P17 () Bool)
(declare-fun P18 () Bool)
(declare-fun P19 () Bool)
(assert (let ((?v_164 (f0_1 x16)) (?v_99 (f0_2 x6 x11)) (?v_2 (f1_1 x17))) (let ((?v_18 (f1_2 x7 ?v_99)) (?v_17 (* 23 x5))) (let ((?v_81 (+ (- ?v_17 (* 9 x9)) (* 17 x7))) (?v_71 (f0_2 (f0_2 x12 x1) x4)) (?v_7 (f1_2 x11 x12)) (?v_53 (f0_1 x14)) (?v_44 (f0_1 x2)) (?v_19 (f0_1 x9)) (?v_4 (f0_2 x10 x18)) (?v_8 (* 23 x13))) (let ((?v_59 (f1_2 ?v_4 x19)) (?v_25 (- (+ (* 10 ?v_18) (* 6 ?v_53)) (* 26 ?v_19))) (?v_37 (f1_1 x3)) (?v_60 (* 22 x14)) (?v_6 (- (+ (* 18 x9) ?v_17) (* 9 x18))) (?v_11 (f0_2 x5 x9)) (?v_83 (f1_2 x3 x2)) (?v_159 (f1_2 x4 x16)) (?v_20 (f1_1 x9)) (?v_27 (* 22 x0))) (let ((?v_38 (- (- ?v_27 (* 20 x15)) (* 27 x17))) (?v_35 (f1_1 x11)) (?v_67 (< x2 18)) (?v_40 (< (f0_2 x18 x2) 27)) (?v_58 (< (f0_2 x12 x7) 1)) (?v_192 (= ?v_159 x3)) (?v_64 (< ?v_37 23))) (let ((?v_32 (< ?v_38 6)) (?v_132 (< ?v_81 4)) (?v_87 (< ?v_83 27)) (?v_89 (< ?v_7 0)) (?v_141 (< ?v_99 6)) (?v_86 (< x6 15)) (?v_31 (< ?v_2 18)) (?v_122 (= x8 x17)) (?v_209 (< ?v_164 14)) (?v_172 (< ?v_164 4)) (?v_186 (< ?v_99 21)) (?v_79 (< ?v_19 15)) (?v_42 (< (f0_1 ?v_2) 26)) (?v_117 (< ?v_6 29)) (?v_45 (< ?v_35 7)) (?v_23 (= ?v_4 x12)) (?v_112 (< (f1_2 x7 x12) 2)) (?v_82 (< x10 23)) (?v_48 (< ?v_35 1)) (?v_41 (< x17 9)) (?v_51 (< x7 27)) (?v_124 (< x7 12)) (?v_109 (< (f0_1 x18) 17)) (?v_28 (< ?v_164 22)) (?v_188 (< ?v_59 21)) (?v_107 (< x14 20)) (?v_191 (< ?v_71 23)) (?v_22 (= x6 ?v_2)) (?v_10 (= ?v_35 x17)) (?v_200 (< ?v_37 17)) (?v_69 (< ?v_20 22)) (?v_125 (= ?v_4 x16)) (?v_1 (< ?v_7 6)) (?v_148 (= (f1_1 x13) x12)) (?v_0 (not (= x13 x11)))) (let ((?v_34 (not ?v_41)) (?v_73 (not ?v_112)) (?v_3 (not P18)) (?v_14 (not ?v_117)) (?v_56 (not ?v_31)) (?v_137 (not P1)) (?v_182 (not ?v_124)) (?v_72 (not P13)) (?v_111 (not ?v_132)) (?v_43 (not P16)) (?v_33 (not ?v_22)) (?v_52 (not P15)) (?v_104 (not ?v_42)) (?v_179 (not P8)) (?v_95 (not P14)) (?v_65 (not ?v_32)) (?v_47 (not (< ?v_38 12))) (?v_88 (not P17)) (?v_85 (not ?v_45)) (?v_108 (not (< ?v_25 24))) (?v_49 (not ?v_48)) (?v_195 (not ?v_51)) (?v_97 (not ?v_23)) (?v_165 (not ?v_67)) (?v_155 (not ?v_69)) (?v_199 (not P11)) (?v_183 (not P0)) (?v_197 (not ?v_1)) (?v_119 (not ?v_109)) (?v_102 (not ?v_58)) (?v_157 (not ?v_64)) (?v_145 (not ?v_188)) (?v_128 (not P12)) (?v_168 (not P5)) (?v_144 (not ?v_89)) (?v_130 (not ?v_125)) (?v_205 (not P6)) (?v_184 (not P4)) (?v_167 (not ?v_10)) (?v_170 (not P3)) (?v_201 (not ?v_148)) (?v_196 (not ?v_192)) (?v_207 (not ?v_200)) (?v_5 (+ x10 (* 18 x1) ?v_8))) (let ((?v_29 (= ?v_5 ?v_6))) (let ((?v_66 (not ?v_29)) (?v_16 (< ?v_4 (- 5)))) (let ((?v_120 (not ?v_16)) (?v_54 (- (+ (* (- 24) x19) (* 11 x2)) (* 27 x9)))) (let ((?v_26 (< ?v_54 (- 17))) (?v_131 (- (- (* 12 (- (+ (* (- 22) x18) (* 23 x15)) (* 21 x7))) (* 19 x17)) (* 7 (f0_2 x19 x7))))) (let ((?v_177 (< ?v_131 14))) (let ((?v_171 (not ?v_177)) (?v_13 (+ (- (* (- 10) x4) (* 4 x5)) ?v_27))) (let ((?v_62 (= x1 ?v_13)) (?v_116 (not (< ?v_20 (- 22)))) (?v_12 (+ (- (* (- 25) x0) (* 13 x5)) (* 7 x16)))) (let ((?v_143 (= ?v_5 ?v_12)) (?v_134 (< ?v_2 (- 8)))) (let ((?v_140 (not ?v_134)) (?v_46 (= (- (+ (* (- 21) x7) (* 4 x13)) (* 19 x16)) (f1_1 x14))) (?v_92 (< x1 (- 11)))) (let ((?v_110 (not ?v_92)) (?v_39 (not (< ?v_2 (- 2)))) (?v_75 (< ?v_44 (- 2)))) (let ((?v_9 (not ?v_75)) (?v_113 (< x19 (- 27))) (?v_57 (+ (- (* (- 7) x8) (* 10 x3)) (* 23 x11)))) (let ((?v_21 (< ?v_57 (- 7)))) (let ((?v_174 (not ?v_21)) (?v_77 (+ (- (* (- 5) x12) (* 13 x12)) ?v_8))) (let ((?v_15 (f1_1 ?v_77))) (let ((?v_138 (= ?v_7 ?v_15)) (?v_24 (+ (* (- 24) ?v_11) (* 24 ?v_11) (* 8 x10)))) (let ((?v_90 (= ?v_24 ?v_19))) (let ((?v_50 (not ?v_90)) (?v_193 (- (- (* (- 14) x9) (* 19 x4)) (* 6 x3)))) (let ((?v_98 (= ?v_193 (- (- (* (- 16) x4) (* 22 x6)) (* 22 x9)))) (?v_114 (f0_2 ?v_12 ?v_18))) (let ((?v_55 (< ?v_114 (- 24)))) (let ((?v_153 (not ?v_55)) (?v_30 (< ?v_13 (- 28)))) (let ((?v_91 (not ?v_30)) (?v_123 (f0_1 ?v_15))) (let ((?v_189 (< ?v_123 27)) (?v_78 (< ?v_11 (- 8)))) (let ((?v_103 (not ?v_78)) (?v_94 (< (f0_2 ?v_2 ?v_25) (- 18))) (?v_68 (= ?v_159 ?v_12)) (?v_96 (< ?v_18 (- 17))) (?v_161 (< ?v_24 (- 27))) (?v_76 (< ?v_25 (- 12)))) (let ((?v_194 (not ?v_76)) (?v_63 (< ?v_83 (- 26))) (?v_70 (< ?v_4 (- 15)))) (let ((?v_101 (not ?v_70)) (?v_36 (< ?v_12 7))) (let ((?v_74 (not ?v_36)) (?v_151 (< ?v_44 (- 11))) (?v_100 (not ?v_46)) (?v_211 (< ?v_59 (- 12))) (?v_166 (< (+ (* (- 24) x13) (* 4 x15) (* 3 x19)) (- 15))) (?v_61 (< x4 (- 16)))) (let ((?v_208 (not ?v_61)) (?v_105 (< (- (- (* (- 26) (+ (- (* 23 ?v_53) (* 29 x11)) (* 8 x4))) (* 21 x3)) (* 6 ?v_54)) 24)) (?v_80 (< ?v_57 (- 21))) (?v_162 (+ (* 28 x0) (* 19 (- (+ (* (- 11) x19) (* 5 ?v_59)) ?v_60)) ?v_60))) (let ((?v_175 (= ?v_162 ?v_59)) (?v_142 (not ?v_62)) (?v_84 (not ?v_63)) (?v_150 (= (- (+ (* (- 3) ?v_44) (* 8 ?v_71)) (* 13 (+ (* (- 15) x0) (* 24 x16) (* 15 x10)))) ?v_38)) (?v_135 (= ?v_77 (f1_2 x14 x15)))) (let ((?v_154 (not ?v_135)) (?v_190 (not ?v_80)) (?v_156 (< ?v_57 23)) (?v_121 (+ (- (* (- 27) ?v_81) (* 13 ?v_59)) (* 3 ?v_44)))) (let ((?v_160 (< ?v_121 (- 10)))) (let ((?v_93 (not ?v_160)) (?v_204 (not (< ?v_13 (- 10)))) (?v_115 (< ?v_71 (- 13))) (?v_176 (= ?v_6 (- (+ (* (- 8) x4) (* 29 ?v_71)) (* 3 x7))))) (let ((?v_152 (not ?v_176)) (?v_126 (not ?v_68)) (?v_149 (not ?v_96)) (?v_106 (< (f1_2 ?v_12 ?v_99) (- 3)))) (let ((?v_133 (not ?v_106)) (?v_139 (not ?v_26)) (?v_118 (< ?v_114 10)) (?v_178 (< ?v_121 17))) (let ((?v_136 (not ?v_178)) (?v_129 (not (< ?v_123 24))) (?v_127 (not (< x19 (- 2)))) (?v_147 (< ?v_131 18)) (?v_146 (< x18 (- 21))) (?v_158 (< ?v_38 (- 10)))) (let ((?v_187 (not ?v_158)) (?v_185 (not ?v_94)) (?v_169 (< ?v_24 19)) (?v_181 (not ?v_146)) (?v_210 (not ?v_147)) (?v_173 (not ?v_150)) (?v_163 (not ?v_98)) (?v_198 (< ?v_162 10)) (?v_180 (< (+ (* (- 23) x12) (* 4 x9) (* 9 x15)) 14))) (let ((?v_202 (not ?v_198)) (?v_206 (not ?v_143)) (?v_203 (not ?v_180))) (and (and (and (and (and (and (and (and (and (and (and (and (and (and (and (and (and (and (and (and (and (and (and (and (and (and (and (and (and (and (and (and (and (and (and (and (and (and (and (and (and (and (and (and (and (and (and (and (and (and (and (and (and (and (and (and (and (and (and (and (and (and (and (and (and (and (and (and (and (and (and (and (and (and (and (and (and (and (and (and (and (and (and (and (and (and (and (and (and (and (and (and (and (and (and (and (and (and (and (and (and (and (and (and (and (and (and (and (and (and (and (and (and (and (and (and (and (and (and (and (and (and (and (and (and (and (and (and (and (and (and (and (and (and (and (and (and (and (and (and (and (and (and (and (and (and (and (and (and (and (and (and (and (and (and (and (and (and (and (and (and (and (and (and (and (and (and (and (and (and (and (and (and (and (and (and (and (and (and (and (and (and (and (and (and (and (and (and (and (and (and (and (and (and (and (and (and (and (and (or (or ?v_120 ?v_0) ?v_58) (or (or P14 ?v_1) ?v_26)) (or (or ?v_34 P12) ?v_171)) (or (or ?v_0 ?v_73) ?v_62)) (or (or ?v_3 ?v_116) ?v_143)) (or (or ?v_140 ?v_1) ?v_46)) (or (or ?v_14 ?v_110) ?v_56)) (or (or ?v_3 ?v_137) ?v_39)) (or (or ?v_9 ?v_64) ?v_113)) (or (or (not ?v_82) ?v_23) ?v_66)) (or (or ?v_10 ?v_174) ?v_86)) (or (or P5 P17) ?v_138)) (or (or ?v_191 ?v_9) P18)) (or (or ?v_28 ?v_10) ?v_182)) (or (or (not P2) ?v_50) ?v_98)) (or (or ?v_153 ?v_22) ?v_91)) (or (or ?v_14 ?v_189) ?v_3)) (or (or P14 ?v_103) ?v_16)) (or (or ?v_51 ?v_72) ?v_111)) (or (or ?v_94 ?v_43) ?v_69)) (or (or ?v_21 ?v_67) ?v_68)) (or (or ?v_40 ?v_33) ?v_52)) (or (or ?v_23 ?v_96) ?v_161)) (or (or ?v_194 ?v_89) ?v_26)) (or (or (= ?v_13 ?v_5) ?v_104) ?v_32)) (or (or ?v_3 ?v_28) ?v_29)) (or (or ?v_107 ?v_30) ?v_63)) (or (or ?v_179 ?v_95) ?v_31)) (or (or ?v_65 ?v_33) ?v_101)) (or (or ?v_34 ?v_74) ?v_45)) (or (or ?v_36 (not ?v_79)) ?v_200)) (or (or ?v_47 ?v_39) ?v_48)) (or (or ?v_40 ?v_41) ?v_1)) (or (or ?v_16 ?v_88) ?v_42)) (or (or ?v_43 (not ?v_151)) ?v_85)) (or (or ?v_100 ?v_108) ?v_47)) (or (or P17 ?v_49) ?v_36)) (or (or ?v_49 ?v_211) ?v_166)) (or (or ?v_50 ?v_208) ?v_195)) (or (or ?v_52 ?v_105) ?v_55)) (or (or ?v_56 ?v_10) P4)) (or (or P10 ?v_80) P1)) (or (or ?v_58 ?v_122) (not P19))) (or (or ?v_175 ?v_61) ?v_142)) (or (or ?v_84 P19) ?v_64)) (or (or ?v_65 ?v_66) ?v_97)) (or (or ?v_165 ?v_56) ?v_68)) (or (or ?v_155 ?v_70) ?v_150)) (or (or ?v_72 ?v_73) ?v_74)) (or (or ?v_52 ?v_75) ?v_76)) (or (or ?v_33 ?v_154) (not P10))) (or (or ?v_78 ?v_79) ?v_190)) (or (or ?v_156 ?v_93) ?v_82)) (or (or (not ?v_87) ?v_199) ?v_51)) (or (or ?v_183 ?v_74) ?v_84)) (or (or ?v_85 P13) ?v_86)) (or (or ?v_87 ?v_3) ?v_88)) (or (or P10 ?v_204) ?v_115)) (or (or ?v_30 ?v_89) ?v_90)) (or (or ?v_197 ?v_125) ?v_91)) (or (or ?v_32 ?v_92) ?v_23)) (or (or ?v_76 P16) ?v_152)) (or (or ?v_93 ?v_94) ?v_126)) (or (or ?v_119 ?v_102) ?v_95)) (or (or ?v_149 P18) ?v_97)) (or (or P16 ?v_98) ?v_106)) (or (or ?v_34 P10) ?v_100)) (or (or ?v_51 ?v_141) ?v_101)) (or (or ?v_157 ?v_42) ?v_40)) (or (or ?v_102 ?v_103) ?v_148)) (or (or ?v_104 ?v_105) ?v_39)) (or (or ?v_145 ?v_133) ?v_30)) (or (or ?v_101 ?v_128) ?v_107)) (or (or ?v_139 P11) P3)) (or (or ?v_108 ?v_109) ?v_110)) (or (or P11 ?v_111) ?v_112)) (or (or ?v_113 ?v_118) ?v_115)) (or (or ?v_92 ?v_103) ?v_116)) (or (or ?v_117 ?v_102) ?v_118)) (or (or ?v_119 ?v_120) ?v_136)) (or (or ?v_122 ?v_129) ?v_42)) (or (or ?v_113 P10) ?v_168)) (or (or ?v_144 ?v_124) ?v_130)) (or (or ?v_205 ?v_65) ?v_126)) (or (or ?v_40 ?v_102) ?v_127)) (or (or ?v_127 ?v_55) ?v_128)) (or (or ?v_129 ?v_118) ?v_30)) (or (or ?v_130 ?v_47) ?v_147)) (or (or ?v_146 ?v_63) ?v_132)) (or (or ?v_100 ?v_111) ?v_184)) (or (or ?v_187 ?v_167) ?v_133)) (or (or ?v_170 ?v_100) ?v_84)) (or (or ?v_185 ?v_134) ?v_48)) (or (or ?v_124 P12) ?v_104)) (or (or ?v_16 ?v_135) ?v_126)) (or (or ?v_61 ?v_136) ?v_26)) (or (or ?v_61 ?v_42) ?v_137)) (or (or ?v_126 ?v_126) ?v_105)) (or (or ?v_138 ?v_32) P13)) (or (or ?v_139 ?v_84) ?v_110)) (or (or ?v_50 ?v_119) ?v_23)) (or (or ?v_169 ?v_140) ?v_141)) (or (or ?v_48 ?v_142) ?v_143)) (or (or P5 ?v_97) ?v_144)) (or (or ?v_145 ?v_84) ?v_181)) (or (or ?v_210 ?v_29) ?v_201)) (or (or ?v_139 ?v_91) ?v_149)) (or (or ?v_94 ?v_173) ?v_52)) (or (or ?v_151 ?v_72) ?v_130)) (or (or (< (+ (* (- 14) x2) (* 14 x15) (* 14 x3)) (- 16)) ?v_91) ?v_49)) (or (or ?v_152 ?v_153) ?v_74)) (or (or ?v_119 ?v_154) ?v_163)) (or (or ?v_155 ?v_29) ?v_9)) (or (or ?v_156 ?v_155) ?v_111)) (or (or ?v_40 ?v_157) ?v_158)) (or (or ?v_30 ?v_196) ?v_160)) (or (or ?v_107 ?v_21) ?v_40)) (or (or ?v_161 ?v_198) ?v_149)) (or (or P5 ?v_132) P6)) (or (or ?v_163 ?v_145) (not ?v_209))) (or (or ?v_85 ?v_165) ?v_87)) (or (or ?v_166 ?v_36) ?v_26)) (or (or ?v_186 ?v_167) ?v_180)) (or (or (not ?v_172) ?v_87) ?v_65)) (or (or P3 ?v_49) ?v_157)) (or (or ?v_168 ?v_39) ?v_56)) (or (or ?v_89 ?v_80) ?v_97)) (or (or (not ?v_169) ?v_127) ?v_58)) (or (or ?v_117 ?v_112) P9)) (or (or (not ?v_105) ?v_95) P3)) (or (or ?v_118 ?v_170) ?v_171)) (or (or ?v_142 ?v_61) ?v_63)) (or (or P18 ?v_172) ?v_173)) (or (or ?v_97 P19) ?v_90)) (or (or ?v_174 ?v_84) ?v_175)) (or (or ?v_14 ?v_103) ?v_176)) (or (or ?v_98 ?v_64) ?v_158)) (or (or ?v_137 ?v_61) ?v_177)) (or (or ?v_30 ?v_30) ?v_85)) (or (or ?v_26 (not ?v_107)) ?v_178)) (or (or ?v_179 ?v_180) ?v_181)) (or (or ?v_34 ?v_49) (not ?v_86))) (or (or ?v_76 ?v_76) ?v_65)) (or (or ?v_151 P9) ?v_36)) (or (or ?v_182 P7) ?v_178)) (or (or ?v_183 ?v_47) ?v_52)) (or (or (not ?v_166) P13) ?v_184)) (or (or ?v_175 ?v_166) ?v_163)) (or (or ?v_182 ?v_166) ?v_185)) (or (or ?v_155 (not ?v_186)) ?v_173)) (or (or ?v_76 ?v_82) ?v_117)) (or (or ?v_66 P10) ?v_187)) (or (or ?v_107 ?v_118) ?v_36)) (or (or ?v_51 P12) ?v_188)) (or (or ?v_107 ?v_189) ?v_153)) (or (or ?v_111 ?v_79) ?v_190)) (or (or ?v_0 ?v_137) (not ?v_191))) (or (or ?v_178 P12) ?v_3)) (or (or ?v_110 ?v_192) ?v_128)) (or (or ?v_118 ?v_102) (not (< ?v_193 (- 27))))) (or (or P18 ?v_191) ?v_165)) (or (or ?v_194 P3) ?v_93)) (or (or ?v_154 ?v_69) ?v_183)) (or (or ?v_92 P3) ?v_140)) (or (or ?v_73 ?v_51) ?v_158)) (or (or ?v_166 ?v_50) (not ?v_138))) (or (or ?v_50 ?v_195) ?v_161)) (or (or ?v_141 ?v_196) ?v_40)) (or (or ?v_130 ?v_82) ?v_107)) (or (or ?v_194 P6) ?v_197)) (or (or ?v_198 ?v_202) ?v_206)) (or (or ?v_195 P17) ?v_40)) (or (or ?v_47 ?v_163) ?v_185)) (or (or ?v_203 ?v_26) ?v_36)) (or (or ?v_166 ?v_169) ?v_120)) (or (or ?v_199 ?v_166) ?v_32)) (or (or ?v_78 ?v_155) ?v_16)) (or (or ?v_200 ?v_42) ?v_62)) (or (or ?v_150 ?v_201) ?v_207)) (or (or ?v_128 ?v_195) ?v_113)) (or (or (not P7) ?v_148) ?v_31)) (or (or ?v_52 ?v_72) ?v_202)) (or (or ?v_88 ?v_110) (not ?v_115))) (or (or P15 ?v_132) ?v_189)) (or (or (not ?v_161) ?v_203) ?v_79)) (or (or ?v_40 ?v_61) ?v_204)) (or (or ?v_169 ?v_135) ?v_1)) (or (or ?v_92 ?v_21) ?v_88)) (or (or ?v_153 ?v_147) ?v_48)) (or (or ?v_205 ?v_206) ?v_3)) (or (or ?v_36 P10) ?v_29)) (or (or P7 (not ?v_40)) ?v_73)) (or (or ?v_207 P15) P6)) (or (or P2 ?v_195) ?v_55)) (or (or ?v_29 P8) ?v_98)) (or (or ?v_103 ?v_129) ?v_208)) (or (or ?v_102 ?v_102) ?v_209)) (or (or ?v_170 ?v_52) ?v_0)) (or (or ?v_210 ?v_64) ?v_22)) (or (or ?v_34 (not ?v_211)) ?v_33))))))))))))))))))))))))))))))))))))))))))))))
(check-sat)
(exit)
